Experiments/Data/DNEGMibs/DNeg_n10k0j0.mps
NAME	DNeg_n10k0j0
ROWS
 N 	 OBJROW
 L	 R0 
COLUMNS
 C0	 OBJROW 	-9	 R0 	10	
 C1	 OBJROW 	-53	 R0 	17	
 C2	 OBJROW 	-65	 R0 	21	
 C3	 OBJROW 	-39	 R0 	22	
 C4	 OBJROW 	-43	 R0 	27	
 C5	 OBJROW 	-46	 R0 	54	
 C6	 OBJROW 	-47	 R0 	75	
 C7	 OBJROW 	-53	 R0 	92	
 C8	 OBJROW 	-51	 R0 	96	
 C9	 OBJROW 	-7	 R0 	96	
RHS
 RHS	 R0 	 47	
BOUNDS
 BV BOUND	C0	 1	
 BV BOUND	C1	 1	
 BV BOUND	C2	 1	
 BV BOUND	C3	 1	
 BV BOUND	C4	 1	
 BV BOUND	C5	 1	
 BV BOUND	C6	 1	
 BV BOUND	C7	 1	
 BV BOUND	C8	 1	
 BV BOUND	C9	 1	
ENDATA
