Experiments/Data/DNEGMibs/DNeg_n10k0j0.txt
N 10
M 11
LC 10
LC 11
LC 12
LC 13
LC 14
LC 15
LC 16
LC 17
LC 18
LC 19
LR 1
LR 2
LR 3
LR 4
LR 5
LR 6
LR 7
LR 8
LR 9
LR 10
LR 11
LO -9
LO -53
LO -65
LO -39
LO -43
LO -46
LO -47
LO -53
LO -51
LO -7
OS 1
IC 2
IC 68
IC 16
IC 19
IC 48
IC 98
IC 71
IC 83
IC 41
IC 18
IB 48
